
Cone linearizations applied:  141

Root node processing (before b&c):
  Real time             =    0.02 sec. (10.67 ticks)
Sequential b&c:
  Real time             =    0.01 sec. (10.37 ticks)
                          ------------
Total (root+branch&cut) =    0.03 sec. (21.05 ticks)
Tried aggregator 2 times.
MIQCP Presolve eliminated 93 rows and 1 columns.
Aggregator did 64 substitutions.
Reduced MIQCP has 84 rows, 152 columns, and 356 nonzeros.
Reduced MIQCP has 92 binaries, 0 generals, 0 SOSs, and 0 indicators.
Reduced MIQCP has 12 quadratic constraints.
Presolve time = 0.00 sec. (0.38 ticks)
Probing time = 0.00 sec. (0.05 ticks)
Clique table members: 24.
MIP emphasis: balance optimality and feasibility.
MIP search method: dynamic search.
Parallel mode: none, using 1 thread.
Root relaxation solution time = 0.00 sec. (0.28 ticks)

        Nodes                                         Cuts/
   Node  Left     Objective  IInf  Best Integer    Best Bound    ItCnt     Gap

      0     0    82709.2163    13                      0.0000       46         
      0     0   114401.9885    17                     Cone: 9       75         
      0     0   170810.6100    17                    Cone: 20      106         
      0     0   183694.4135    18                    Cone: 32      130         
      0     0   189507.8365    18                    Cone: 44      143         
      0     0   191919.6153    18                    Cone: 56      155         
      0     0   193910.5560    18                    Cone: 68      168         
      0     0   194749.9933    18                    Cone: 92      207         
      0     0   194750.0320    18                   Cone: 104      218         
      0     0   194750.0515    18                   Cone: 116      229         
      0     0   194750.0613    18                   Cone: 127      240         
      0     0   194750.0662    18                   Cone: 138      251         
      0     0   194750.0683    18                   Cone: 147      260         
      0     0   194750.0693    18                   Cone: 155      266         
      0     0   194750.0695    18                   Cone: 159      268         
      0     0   194750.0696    18                   Cone: 163      269         
      0     0   194750.0696    18                   Cone: 167      270         
      0     0   194750.0696    18                 194750.0696      270         
*     0+    0                       288908.9038   194750.0696            32.59%
      0     0   263682.5272    21   288908.9038      Cuts: 14      373    8.73%
      0     0   280609.2235    13   288908.9038       Cuts: 4      405    2.87%
      0     0   282925.5371    11   288908.9038       Cuts: 2      409    2.07%
      0     0   283632.2462    16   288908.9038       Cuts: 2      428    1.83%
      0     0   283997.0180    14   288908.9038       Cuts: 5      445    1.70%
      0     0   284149.7254    13   288908.9038   LiftProj: 3      451    1.65%
      0     0   284298.4104    17   288908.9038   LiftProj: 2      459    1.60%
*     0+    0                       288786.7106   286756.2579             0.70%
*     0+    0                       288786.7106   287687.0279             0.38%
      0     2   287687.0279     8   288786.7106   287687.1188      472    0.38%
Elapsed time = 0.19 sec. (124.53 ticks, tree = 0.01 MB, solutions = 3)
*    40+   34                       288706.8127   287711.3744             0.34%
*    70+   54                       288175.9201   287714.0580             0.16%
*   120+   82                       288070.0507   287729.5891             0.12%
*   127    84      integral     0   288064.6128   287729.5891      717    0.12%
*   210+   55                       287901.5580   287766.2973             0.05%
*   230+   50                       287868.9636   287768.8243             0.03%
*   290+   12                       287810.4613   287794.6884             0.01%
#SOLVERNAME# CPLEX_MISOCP
#SOLVER# CPLEX.CplexSolver(Any[(:CPX_PARAM_THREADS, 1), (:CPX_PARAM_TILIM, 3600.0), (:CPX_PARAM_SCRIND, 1), (:CPX_PARAM_EPINT, 1.0e-9), (:CPX_PARAM_EPRHS, 1.0e-8), (:CPX_PARAM_EPGAP, 1.0e-5)])
#INSTANCE# sssd-strong-20-4.cbf.gz
#TIMELIMIT# 3600.0
#STATUS# Optimal
#OBJVAL# 287810.4612525967
#OBJBOUND# 287808.84180989355
#NODECOUNT# 305
#TIMESOLVER# 0.30554699897766113
#TIMEALL# 0.8851468563079834
#SOLUTION# [0.0,0.0,1.0,0.0,0.0,1.0,0.0,0.0,0.0,0.0,1.0,0.0,0.0,0.0,0.0,1.0,1.0,0.0,0.0,0.0,1.0,0.0,0.0,0.0,1.0,0.0,0.0,0.0,0.0,1.0,0.0,0.0,0.0,0.0,0.0,1.0,0.0,0.0,1.0,0.0,0.0,0.0,1.0,0.0,0.0,0.0,0.0,1.0,0.0,1.0,0.0,0.0,0.0,1.0,0.0,0.0,0.0,0.0,0.0,1.0,0.0,0.0,0.0,1.0,0.0,1.0,0.0,0.0,0.0,0.0,1.0,0.0,0.0,1.0,0.0,0.0,1.0,0.0,0.0,0.0,0.0,0.0,1.0,0.0,0.0,1.0,0.0,0.0,1.0,0.0,0.0,1.0,0.6454673909988778,0.8291567768782243,0.698162937676125,0.7925213788390245,0.0,0.0,0.39226991871609,0.0,0.0,0.45330002311557127,0.0,0.0,0.4111283368551142,0.0,0.0,0.4421266343920538,0.0,0.3227336954994389,0.3227336954994389,0.1265987361413939,0.41457838843911216,0.41457838843911216,0.18792837688132652,0.3490814688380625,0.3490814688380625,0.14351730041050542,0.39626068941951226,0.39626068941951226,0.17519737222348536,0.6454673909988778,0.6454673909988778,1.645467390998878,0.8291567768782243,0.8291567768782243,1.8291567768782244,0.698162937676125,0.698162937676125,1.698162937676125,0.7925213788390245,0.7925213788390245,1.7925213788390244,0.6454673909988778,0.6454673909988778,0.6454673909988778,0.8291567768782243,0.8291567768782243,0.8291567768782243,0.698162937676125,0.698162937676125,0.698162937676125,0.7925213788390245,0.7925213788390245,0.7925213788390245]

Cover cuts applied:  1
Lift and project cuts applied:  2
Cone linearizations applied:  51

Root node processing (before b&c):
  Real time             =    0.19 sec. (124.54 ticks)
Sequential b&c:
  Real time             =    0.11 sec. (101.73 ticks)
                          ------------
Total (root+branch&cut) =    0.31 sec. (226.27 ticks)
